Selected objective sense:  MINIMIZE
Selected objective  name:  OBJ
Selected RHS        name:  RHS1
Selected bound      name:  BND1
CPXPARAM_Preprocessing_Presolve                  0
CPXPARAM_LPMethod                                4
CPXPARAM_Threads                                 1
CPXPARAM_SolutionType                            2
CPXPARAM_TimeLimit                               3600
Tried aggregator 0 times.
DUAL formed by presolve
Reduced presolve eliminated 8471 rows and 8519 columns.
Reduced LP has 65281 rows, 24345 columns, and 1472469 nonzeros.
Presolve time = 0.43 sec. (340.14 ticks)
Parallel mode: none, using 1 thread for barrier

***NOTE: Found 24 dense columns.

Number of nonzeros in lower triangle of A*A' = 63511
Using Approximate Minimum Degree ordering
Total time for automatic ordering = 0.02 sec. (7.25 ticks)
Summary statistics for Cholesky factor:
  Rows in Factor            = 65305
  Integer space required    = 618719
  Total non-zeros in factor = 1618908
  Total FP ops to factor    = 40705186
 Itn      Primal Obj        Dual Obj  Prim Inf Upper Inf  Dual Inf Inf Ratio
   0  -4.7175094e+07   9.8648543e+08  6.51e+05  0.00e+00  6.54e+07  1.00e+00
   1  -4.9486968e+08   8.7059298e+08  2.03e+05  1.97e-12  6.09e+07  1.03e-03
   2  -2.3807040e+08   4.0009863e+07  3.65e+04  2.92e-12  1.30e+07  4.00e-03
   3  -7.5355258e+06   3.1179386e+06  1.25e+03  2.86e-12  1.05e+06  2.51e-02
   4  -6.8210401e+06   3.2745553e+06  1.17e+03  1.72e-12  9.69e+05  2.15e-02
   5  -4.8335999e+06   3.4402652e+06  9.72e+02  3.09e-12  8.86e+05  1.33e-02
   6  -4.2007136e+06   3.5896055e+06  9.08e+02  3.45e-12  8.08e+05  1.17e-02
   7  -3.8049363e+06   3.3783664e+06  8.54e+02  2.56e-12  6.80e+05  1.26e-02
   8  -3.0966258e+06   2.1532278e+06  6.79e+02  1.70e-12  4.69e+05  1.83e-02
   9  -2.9103705e+06   3.2461681e+05  6.14e+02  2.01e-12  2.15e+05  4.02e-02
  10  -3.6228900e+05   5.9457759e+04  7.92e+01  2.56e-12  3.30e+04  4.77e-01
  11   7.6229866e+03   4.8264313e+04  7.71e+00  1.09e-12  2.02e+03  8.15e+00
  12   3.9391971e+04   4.7591034e+04  1.57e+00  2.58e-12  2.62e+02  5.19e+01
  13   4.5169255e+04   4.7259184e+04  3.68e-01  9.50e-13  1.28e+02  6.49e+01
  14   4.6260031e+04   4.7047481e+04  1.20e-01  8.14e-13  7.03e+01  1.01e+02
  15   4.6574581e+04   4.6912151e+04  4.33e-02  6.78e-13  3.81e+01  1.80e+02
  16   4.6678290e+04   4.6832394e+04  1.39e-02  1.36e-12  2.17e+01  3.20e+02
  17   4.6700906e+04   4.6815021e+04  8.20e-03  6.78e-13  1.79e+01  3.95e+02
  18   4.6718971e+04   4.6800143e+04  3.62e-03  2.44e-12  1.46e+01  4.94e+02
  19   4.6728295e+04   4.6790841e+04  1.29e-03  2.44e-12  1.26e+01  5.86e+02
  20   4.6732844e+04   4.6781573e+04  4.94e-04  1.08e-12  1.05e+01  7.20e+02
  21   4.6734776e+04   4.6777166e+04  1.25e-04  2.03e-12  9.48e+00  8.09e+02
  22   4.6736634e+04   4.6765070e+04  7.74e-05  1.63e-12  6.42e+00  1.21e+03
  23   4.6737524e+04   4.6760602e+04  1.95e-05  6.78e-13  5.36e+00  1.50e+03
  24   4.6738691e+04   4.6752142e+04  1.00e-05  1.63e-12  3.17e+00  2.62e+03
  25   4.6739271e+04   4.6749602e+04  2.53e-06  8.14e-13  2.53e+00  3.41e+03
  26   4.6740077e+04   4.6746130e+04  5.67e-07  9.49e-13  1.59e+00  5.63e+03
  27   4.6740380e+04   4.6744702e+04  6.66e-08  3.12e-12  1.19e+00  7.66e+03
  28   4.6740510e+04   4.6743448e+04  1.61e-08  8.14e-13  8.31e-01  1.11e+04
  29   4.6740387e+04   4.6742571e+04  8.84e-09  6.78e-13  5.96e-01  1.65e+04
  30   4.6740425e+04   4.6741067e+04  4.57e-09  2.03e-12  1.72e-01  8.91e+04
  31   4.6740531e+04   4.6740948e+04  4.12e-09  1.22e-12  1.23e-01  1.26e+05
  32   4.6740607e+04   4.6740764e+04  4.45e-08  1.49e-12  4.81e-02  3.37e+05
  33   4.6740633e+04   4.6740693e+04  2.12e-05  8.14e-13  1.77e-02  9.52e+05
  34   4.6740641e+04   4.6740669e+04  3.41e-04  4.09e-13  6.99e-03  2.44e+06
  35   4.6740648e+04   4.6740662e+04  1.10e-03  1.10e-12  3.99e-03  4.18e+06
  36   4.6740651e+04   4.6740656e+04  6.78e-04  1.10e-12  1.33e-03  1.26e+07
  37   4.6740651e+04   4.6740655e+04  5.91e-04  4.82e-12  5.76e-04  2.82e+07
  38   4.6740652e+04   4.6740654e+04  4.76e-04  1.51e-12  1.29e-04  1.06e+08
  39   4.6740653e+04   4.6740653e+04  4.67e-04  4.13e-13  2.17e-05  4.08e+08
Barrier time = 4.59 sec. (4966.41 ticks)

Total time on 1 threads = 4.59 sec. (4966.41 ticks)
Solve time: 4.588272039
Barrier iterations: 39
